n = 100;
C = 26565;
w = [507,972,304,563,84,659,965,300,188,349,339,953,118,567,815,311,641,442,550,26,568,6,216,562,465,223,996,985,381,764,900,792,290,526,322,443,454,38,714,322,621,730,482,106,877,770,200,875,936,693,939,562,809,553,36,786,579,395,574,855,222,28,724,788,891,757,850,837,514,348,991,407,65,711,146,791,360,1000,754,16,860,50,570,745,753,931,93,974,251,619,494,125,662,20,867,548,268,282,394,426];
p = [507,972,304,563,84,659,965,300,188,349,339,953,118,567,815,311,641,442,550,26,568,6,216,562,465,223,996,985,381,764,900,792,290,526,322,443,454,38,714,322,621,730,482,106,877,770,200,875,936,693,939,562,809,553,36,786,579,395,574,855,222,28,724,788,891,757,850,837,514,348,991,407,65,711,146,791,360,1000,754,16,860,50,570,745,753,931,93,974,251,619,494,125,662,20,867,548,268,282,394,426];
